     Program PWSCF v.6.5 starts on  4Jun2020 at 12:26:56

     R & G space division:  proc/nbgrp/npool/nimage =      24
     Waiting for input...
     Reading input from standard input

     Current dimensions of program PWSCF are:
     Max number of different atomic species (ntypx) = 10
     Max number of k-points (npk) =  40000
     Max angular momentum in pseudopotentials (lmaxx) =  3
               file Ag.pbe-dn-kjpaw_psl.0.1.UPF: wavefunction(s)  5S 5P 4D renormalized

     gamma-point specific algorithms are used

     bravais-lattice index     =            1
     lattice parameter (alat)  =      25.0000  a.u.
     unit-cell volume          =   15625.0000 (a.u.)^3
     number of atoms/cell      =           13
     number of atomic types    =            1
     number of electrons       =       143.00
     number of Kohn-Sham states=           86
     kinetic-energy cutoff     =      32.0000  Ry
     charge density cutoff     =     165.0000  Ry
     convergence threshold     =      1.0E-08
     mixing beta               =       0.7000
     number of iterations used =            8  local-TF  mixing
     Exchange-correlation= SLA PW PBX PBC
                           (   1   4   3   4   0   0   0)

     celldm(1)=  25.000000  celldm(2)=   0.000000  celldm(3)=   0.000000
     celldm(4)=   0.000000  celldm(5)=   0.000000  celldm(6)=   0.000000

     crystal axes: (cart. coord. in units of alat)
               a(1) = (   1.000000   0.000000   0.000000 )
               a(2) = (   0.000000   1.000000   0.000000 )
               a(3) = (   0.000000   0.000000   1.000000 )

     reciprocal axes: (cart. coord. in units 2 pi/alat)
               b(1) = (  1.000000  0.000000  0.000000 )
               b(2) = (  0.000000  1.000000  0.000000 )
               b(3) = (  0.000000  0.000000  1.000000 )

     PseudoPot. # 1 for Ag read from file:
     ../../pseudo/Ag.pbe-dn-kjpaw_psl.0.1.UPF
     MD5 check sum: 2edc915f30f03476250949c796a6a376
     Pseudo is Projector augmented-wave + core cor, Zval = 11.0
     Generated using "atomic" code by A. Dal Corso v.5.0.2 svn rev. 9415
     Shape of augmentation charge: PSQ
     Using radial grid of 1237 points,  6 beta functions with:
                l(1) =   0
                l(2) =   0
                l(3) =   1
                l(4) =   1
                l(5) =   2
                l(6) =   2
     Q(r) pseudized with 0 coefficients

     atomic species   valence    mass     pseudopotential
        Ag            11.00   107.87000     Ag( 1.00)

     Starting magnetic structure
     atomic species   magnetization
        Ag           0.700

     No symmetry found

                                    s                        frac. trans.

      isym =  1     identity

 cryst.   s( 1) = (     1          0          0      )
                  (     0          1          0      )
                  (     0          0          1      )

 cart.    s( 1) = (  1.0000000  0.0000000  0.0000000 )
                  (  0.0000000  1.0000000  0.0000000 )
                  (  0.0000000  0.0000000  1.0000000 )

     point group C_1 (1)
     there are  1 classes
     the character table:

       E
A      1.00

     the symmetry operations in each class and the name of the first element:

     E        1
          identity

   Cartesian axes

     site n.     atom                  positions (alat units)
         1           Ag  tau(   1) = (   0.1790081   0.1750668   0.3405115  )
         2           Ag  tau(   2) = (   0.2151416   0.3743888   0.4292143  )
         3           Ag  tau(   3) = (   0.5194810   0.2645856   0.2763837  )
         4           Ag  tau(   4) = (   0.3732395   0.2199113   0.4361945  )
         5           Ag  tau(   5) = (   0.4155563   0.2471748   0.0819138  )
         6           Ag  tau(   6) = (   0.4516869   0.4465419   0.1705754  )
         7           Ag  tau(   7) = (   0.2052028   0.1918634   0.1215363  )
         8           Ag  tau(   8) = (   0.3153509   0.3108017   0.2555346  )
         9           Ag  tau(   9) = (   0.2635088   0.5144295   0.2649942  )
        10           Ag  tau(  10) = (   0.4254889   0.4297600   0.3894839  )
        11           Ag  tau(  11) = (   0.1112335   0.3569684   0.2346958  )
        12           Ag  tau(  12) = (   0.2574407   0.4017052   0.0748833  )
        13           Ag  tau(  13) = (   0.3670914   0.1071609   0.2460882  )

   Crystallographic axes

     site n.     atom                  positions (cryst. coord.)
         1           Ag  tau(   1) = (  0.1790081  0.1750668  0.3405115  )
         2           Ag  tau(   2) = (  0.2151416  0.3743888  0.4292143  )
         3           Ag  tau(   3) = (  0.5194810  0.2645856  0.2763837  )
         4           Ag  tau(   4) = (  0.3732395  0.2199113  0.4361945  )
         5           Ag  tau(   5) = (  0.4155563  0.2471748  0.0819138  )
         6           Ag  tau(   6) = (  0.4516869  0.4465419  0.1705754  )
         7           Ag  tau(   7) = (  0.2052028  0.1918634  0.1215363  )
         8           Ag  tau(   8) = (  0.3153509  0.3108017  0.2555346  )
         9           Ag  tau(   9) = (  0.2635088  0.5144295  0.2649942  )
        10           Ag  tau(  10) = (  0.4254889  0.4297600  0.3894839  )
        11           Ag  tau(  11) = (  0.1112335  0.3569684  0.2346958  )
        12           Ag  tau(  12) = (  0.2574407  0.4017052  0.0748833  )
        13           Ag  tau(  13) = (  0.3670914  0.1071609  0.2460882  )

     number of k points=     1  Fermi-Dirac smearing, width (Ry)=  0.0007
                       cart. coord. in units 2pi/alat
        k(    1) = (   0.0000000   0.0000000   0.0000000), wk =   1.0000000

                       cryst. coord.
        k(    1) = (   0.0000000   0.0000000   0.0000000), wk =   1.0000000

     Check: negative core charge=   -0.000011

     Initial potential from superposition of free atoms

     starting charge  142.99482, renormalised to  143.00000
     Starting wfcs are  117 randomized atomic wfcs
     Checking if some PAW data can be deallocated...

     Self-consistent Calculation

     iteration #  1     ecut=    32.00 Ry     beta= 0.70
     Davidson diagonalization with overlap
     ethr =  1.00E-02,  avg # of iterations =  3.0

     total energy              =   -4617.19868534 Ry
     Harris-Foulkes estimate   =   -4610.27191306 Ry
     estimated scf accuracy    <       7.34347408 Ry

     total magnetization       =     5.00 Bohr mag/cell
     absolute magnetization    =     5.01 Bohr mag/cell

[...]

     total energy              =   -4618.01106199 Ry
     Harris-Foulkes estimate   =   -4618.01106172 Ry
     estimated scf accuracy    <       0.00000001 Ry

[...]

     iteration # 20     ecut=    32.00 Ry     beta= 0.70
     Davidson diagonalization with overlap
     ethr =  8.01E-12,  avg # of iterations =  3.5

     Magnetic moment per site:
     atom:    1    charge:    9.4158    magn:    0.1128    constr:    0.0000
     atom:    2    charge:    9.4157    magn:    0.1126    constr:    0.0000
     atom:    3    charge:    9.4148    magn:    0.1121    constr:    0.0000
     atom:    4    charge:    9.4156    magn:    0.1125    constr:    0.0000
     atom:    5    charge:    9.4158    magn:    0.1125    constr:    0.0000
     atom:    6    charge:    9.4156    magn:    0.1128    constr:    0.0000
     atom:    7    charge:    9.4160    magn:    0.1128    constr:    0.0000
     atom:    8    charge:    9.5329    magn:    0.1417    constr:    0.0000
     atom:    9    charge:    9.4156    magn:    0.1122    constr:    0.0000
     atom:   10    charge:    9.4155    magn:    0.1128    constr:    0.0000
     atom:   11    charge:    9.4151    magn:    0.1121    constr:    0.0000
     atom:   12    charge:    9.4153    magn:    0.1125    constr:    0.0000
     atom:   13    charge:    9.4156    magn:    0.1121    constr:    0.0000

     End of self-consistent calculation

 ------ SPIN UP ------------

          k = 0.0000 0.0000 0.0000 ( 23917 PWs)   bands (ev):

    -8.7003  -8.3139  -8.3137  -8.3135  -8.3132  -8.3130  -7.3415  -7.3412
    -7.3409  -7.1977  -7.1974  -7.1971  -7.1967  -7.1568  -7.1567  -7.1565
    -7.0774  -6.9941  -6.9937  -6.9936  -6.9935  -6.7750  -6.7748  -6.7744
    -6.7739  -6.7736  -6.7194  -6.7190  -6.7188  -6.4261  -6.4259  -6.4253
    -6.4248  -6.4244  -6.3600  -6.3597  -6.3593  -6.3585  -6.3580  -5.9700
    -5.9696  -5.9695  -5.8978  -5.8975  -5.8973  -5.8971  -5.7292  -5.7292
    -5.7291  -5.7290  -5.7288  -5.6950  -5.6947  -5.6944  -5.6942  -5.6058
    -5.6057  -5.6056  -5.5764  -5.5761  -5.5760  -5.5757  -5.5754  -5.4410
    -5.4408  -5.4406  -4.7233  -4.7230  -4.7227  -2.5595  -2.5574  -2.5401
    -2.5389  -2.5387  -1.8637  -0.5035  -0.4890  -0.4800  -0.1485  -0.1427
    -0.1409  -0.1344  -0.0332  -0.0199  -0.0141   0.7831

     occupation numbers
     1.0000   1.0000   1.0000   1.0000   1.0000   1.0000   1.0000   1.0000
     1.0000   1.0000   1.0000   1.0000   1.0000   1.0000   1.0000   1.0000
     1.0000   1.0000   1.0000   1.0000   1.0000   1.0000   1.0000   1.0000
     1.0000   1.0000   1.0000   1.0000   1.0000   1.0000   1.0000   1.0000
     1.0000   1.0000   1.0000   1.0000   1.0000   1.0000   1.0000   1.0000
     1.0000   1.0000   1.0000   1.0000   1.0000   1.0000   1.0000   1.0000
     1.0000   1.0000   1.0000   1.0000   1.0000   1.0000   1.0000   1.0000
     1.0000   1.0000   1.0000   1.0000   1.0000   1.0000   1.0000   1.0000
     1.0000   1.0000   1.0000   1.0000   1.0000   1.0000   1.0000   1.0000
     1.0000   1.0000   0.0000   0.0000   0.0000   0.0000   0.0000   0.0000
     0.0000   0.0000   0.0000   0.0000   0.0000   0.0000

 ------ SPIN DOWN ----------

          k = 0.0000 0.0000 0.0000 ( 23917 PWs)   bands (ev):

    -8.6381  -8.2275  -8.2272  -8.2269  -8.2267  -8.2264  -7.2522  -7.2520
    -7.2518  -7.1098  -7.1096  -7.1093  -7.1088  -7.0244  -7.0243  -7.0242
    -6.8838  -6.8834  -6.8832  -6.8831  -6.8283  -6.6657  -6.6656  -6.6652
    -6.6647  -6.6643  -6.5768  -6.5764  -6.5761  -6.3326  -6.3324  -6.3317
    -6.3312  -6.3308  -6.2717  -6.2715  -6.2711  -6.2703  -6.2699  -5.8943
    -5.8940  -5.8936  -5.8020  -5.8016  -5.8014  -5.8013  -5.6409  -5.6408
    -5.6407  -5.6406  -5.6403  -5.6045  -5.6039  -5.6037  -5.6035  -5.5231
    -5.5229  -5.5227  -5.4807  -5.4805  -5.4805  -5.4798  -5.4795  -5.3741
    -5.3737  -5.3735  -4.4527  -4.4525  -4.4515  -2.1457  -2.1448  -2.1270
    -2.1256  -2.1250  -1.5441  -0.1113  -0.0961  -0.0879   0.2088   0.2148
     0.2418   0.2942   0.3100   0.3456   0.3551   0.9044

     occupation numbers
     1.0000   1.0000   1.0000   1.0000   1.0000   1.0000   1.0000   1.0000
     1.0000   1.0000   1.0000   1.0000   1.0000   1.0000   1.0000   1.0000
     1.0000   1.0000   1.0000   1.0000   1.0000   1.0000   1.0000   1.0000
     1.0000   1.0000   1.0000   1.0000   1.0000   1.0000   1.0000   1.0000
     1.0000   1.0000   1.0000   1.0000   1.0000   1.0000   1.0000   1.0000
     1.0000   1.0000   1.0000   1.0000   1.0000   1.0000   1.0000   1.0000
     1.0000   1.0000   1.0000   1.0000   1.0000   1.0000   1.0000   1.0000
     1.0000   1.0000   1.0000   1.0000   1.0000   1.0000   1.0000   1.0000
     1.0000   1.0000   1.0000   1.0000   1.0000   0.0000   0.0000   0.0000
     0.0000   0.0000   0.0000   0.0000   0.0000   0.0000   0.0000   0.0000
     0.0000   0.0000   0.0000   0.0000   0.0000   0.0000

     the Fermi energy is    -2.3407 ev

!    total energy              =   -4618.01106267 Ry
     Harris-Foulkes estimate   =   -4618.01106199 Ry
     estimated scf accuracy    <          3.4E-09 Ry

     total all-electron energy =   -138218.569783 Ry

     The total energy is the sum of the following terms:

     one-electron contribution =   -2959.41871155 Ry
     hartree contribution      =    1582.60909720 Ry
     xc contribution           =    -462.96844503 Ry
     ewald contribution        =     634.18839129 Ry
     one-center paw contrib.   =   -3412.42139457 Ry
      -> PAW hartree energy AE =      66.79770896 Ry
      -> PAW hartree energy PS =     -66.64964686 Ry
      -> PAW xc energy AE      =    -297.85488843 Ry
      -> PAW xc energy PS      =      35.21398752 Ry
      -> total E_H with PAW    =    1582.75715930 Ry
      -> total E_XC with PAW   =    -725.60934595 Ry
     smearing contrib. (-TS)   =      -0.00000000 Ry

     total magnetization       =     5.00 Bohr mag/cell
     absolute magnetization    =     5.20 Bohr mag/cell

     convergence has been achieved in  20 iterations

     Writing output data file ./tmp/ag13.save/

     General routines

     Parallel routines

     PAW routines

   This run was terminated on:  12:29:19   4Jun2020

   JOB DONE.